
Gurobi 7.5.2 (linux64) logging started Sat Jul  7 16:23:30 2018

Changed value of parameter LogFile to result/ilp/simNo_2-n_100-m_40-s_4-minVAF_0.05-cov_10000-k_1-fn_0.15-fp_0.0001-na_0.15.ILP.gurobiSolverLog
   Prev: gurobi.log  Default: 
Changed value of parameter TimeLimit to 86400.0
   Prev: 1e+100  Min: 0.0  Max: 1e+100  Default: 1e+100
Optimize a model with 639293 rows, 10765 columns and 1940420 nonzeros
Variable types: 0 continuous, 10765 integer (10765 binary)
Coefficient statistics:
  Matrix range     [1e-05, 4e+00]
  Objective range  [1e+00, 1e+01]
  Bounds range     [1e+00, 1e+00]
  RHS range        [2e-01, 2e+00]
Found heuristic solution: objective -18990.32833
Presolve removed 118198 rows and 926 columns (presolve time = 5s) ...
Presolve removed 120716 rows and 926 columns (presolve time = 10s) ...
Presolve removed 121197 rows and 926 columns (presolve time = 19s) ...
Presolve removed 169297 rows and 1407 columns (presolve time = 20s) ...
Presolve removed 169297 rows and 1407 columns (presolve time = 26s) ...
Presolve removed 169297 rows and 1407 columns
Presolve time: 27.36s
Presolved: 469996 rows, 9358 columns, 1417747 nonzeros
Variable types: 0 continuous, 9358 integer (9358 binary)
Presolved: 9358 rows, 479354 columns, 1427105 nonzeros

Presolve removed 9358 rows and 479354 columns

Root simplex log...

Iteration    Objective       Primal Inf.    Dual Inf.      Time
       0    1.1641179e+01   0.000000e+00   9.554600e+04     33s
   10013   -2.2049792e+02   0.000000e+00   8.770270e+05     35s
   25022   -3.4666214e+02   0.000000e+00   8.111332e+05     40s
   36672   -3.8244245e+02   0.000000e+00   2.176266e+05     45s
   48333   -4.2166900e+02   0.000000e+00   1.485715e+05     50s
   57841   -4.4640470e+02   0.000000e+00   2.108744e+05     55s
   66279   -4.6215886e+02   0.000000e+00   1.284926e+05     60s
   73657   -4.7462991e+02   0.000000e+00   7.620389e+03     66s
   74610   -4.7432787e+02   0.000000e+00   0.000000e+00     67s
   74610   -4.7432787e+02   0.000000e+00   0.000000e+00     69s

Root relaxation: objective -4.743279e+02, 74610 iterations, 39.23 seconds
Total elapsed time = 154.54s
Total elapsed time = 228.08s

    Nodes    |    Current Node    |     Objective Bounds      |     Work
 Expl Unexpl |  Obj  Depth IntInf | Incumbent    BestBd   Gap | It/Node Time

     0     0 -474.32787    0 2657 -18990.328 -474.32787  97.5%     -  344s
H    0     0                    -883.7425400 -474.32787  46.3%     -  351s
H    0     0                    -619.9191177 -474.32787  23.5%     -  352s
     0     0 -480.19965    0 2668 -619.91912 -480.19965  22.5%     -  582s
     0     0 -480.21646    0 2694 -619.91912 -480.21646  22.5%     -  608s
     0     0 -480.21646    0 2693 -619.91912 -480.21646  22.5%     -  614s
     0     0 -482.85338    0 2704 -619.91912 -482.85338  22.1%     -  670s
H    0     0                    -618.0786839 -482.85338  21.9%     -  676s
     0     0 -482.96219    0 2703 -618.07868 -482.96219  21.9%     -  684s
     0     0 -483.15819    0 2754 -618.07868 -483.15819  21.8%     -  699s
     0     0 -483.15974    0 2755 -618.07868 -483.15974  21.8%     -  705s
     0     0 -485.21935    0 2746 -618.07868 -485.21935  21.5%     -  923s
H    0     0                    -596.1440888 -485.21935  18.6%     -  926s
H    0     0                    -590.6227875 -485.21935  17.8%     -  927s
     0     0 -485.23115    0 2748 -590.62279 -485.23115  17.8%     -  932s
     0     0 -485.23115    0 2749 -590.62279 -485.23115  17.8%     -  937s
     0     0 -485.91549    0 2704 -590.62279 -485.91549  17.7%     -  981s
     0     0 -485.96545    0 2706 -590.62279 -485.96545  17.7%     -  995s
     0     0 -485.97158    0 2707 -590.62279 -485.97158  17.7%     - 1002s
     0     0 -487.06863    0 2736 -590.62279 -487.06863  17.5%     - 1162s
H    0     0                    -585.1014862 -487.06863  16.8%     - 1167s
     0     0 -487.06863    0 2732 -585.10149 -487.06863  16.8%     - 1169s
     0     0 -488.76939    0 2706 -585.10149 -488.76939  16.5%     - 1310s
     0     0 -488.99942    0 2708 -585.10149 -488.99942  16.4%     - 1327s
     0     0 -489.43955    0 2722 -585.10149 -489.43955  16.3%     - 1338s
     0     0 -489.57048    0 2697 -585.10149 -489.57048  16.3%     - 1346s
     0     0 -489.61417    0 2719 -585.10149 -489.61417  16.3%     - 1355s
     0     0 -489.62870    0 2715 -585.10149 -489.62870  16.3%     - 1362s
     0     0 -489.63335    0 2715 -585.10149 -489.63335  16.3%     - 1368s
     0     0 -489.63335    0 2716 -585.10149 -489.63335  16.3%     - 1373s
     0     0 -491.84607    0 2682 -585.10149 -491.84607  15.9%     - 1458s
H    0     0                    -583.2610525 -491.84607  15.7%     - 1465s
     0     0 -491.84607    0 2685 -583.26105 -491.84607  15.7%     - 1470s
     0     0 -493.31207    0 2683 -583.26105 -493.31207  15.4%     - 1652s
H    0     0                    -564.8567148 -493.31207  12.7%     - 1659s
     0     0 -493.42939    0 2679 -564.85671 -493.42939  12.6%     - 1704s
     0     0 -493.56823    0 2686 -564.85671 -493.56823  12.6%     - 1720s
     0     0 -493.56823    0 2683 -564.85671 -493.56823  12.6%     - 1725s
     0     0 -494.70897    0 2703 -564.85671 -494.70897  12.4%     - 2206s
     0     0 -494.96459    0 2680 -564.85671 -494.96459  12.4%     - 2288s
     0     0 -494.96459    0 2681 -564.85671 -494.96459  12.4%     - 2295s
     0     0 -495.83368    0 2680 -564.85671 -495.83368  12.2%     - 2336s
     0     0 -495.83368    0 2688 -564.85671 -495.83368  12.2%     - 2349s
     0     0 -497.02655    0 2688 -564.85671 -497.02655  12.0%     - 3243s
     0     0 -497.02655    0 2696 -564.85671 -497.02655  12.0%     - 3402s
     0     0 -497.02655    0 2691 -564.85671 -497.02655  12.0%     - 3432s
H    0     0                    -563.0162810 -497.02655  11.7%     - 3555s
     0     0 -497.90587    0 2674 -563.01628 -497.90587  11.6%     - 4067s
     0     0 -497.91294    0 2676 -563.01628 -497.91294  11.6%     - 4081s
     0     0 -497.92350    0 2676 -563.01628 -497.92350  11.6%     - 4091s
     0     0 -497.93760    0 2674 -563.01628 -497.93760  11.6%     - 4102s
     0     0 -497.93760    0 2674 -563.01628 -497.93760  11.6%     - 4106s
     0     0 -498.54321    0 2673 -563.01628 -498.54321  11.5%     - 6619s
     0     0 -499.15259    0 2684 -563.01628 -499.15259  11.3%     - 6729s
     0     0 -499.18215    0 2684 -563.01628 -499.18215  11.3%     - 6745s
     0     0 -499.18215    0 2685 -563.01628 -499.18215  11.3%     - 6749s
     0     0 -500.58326    0 2677 -563.01628 -500.58326  11.1%     - 7047s
     0     0 -501.03972    0 2691 -563.01628 -501.03972  11.0%     - 7191s
     0     0 -501.14197    0 2692 -563.01628 -501.14197  11.0%     - 7226s
     0     0 -501.14197    0 2690 -563.01628 -501.14197  11.0%     - 7232s
     0     0 -502.27946    0 2676 -563.01628 -502.27946  10.8%     - 7617s
     0     0 -502.88527    0 2695 -563.01628 -502.88527  10.7%     - 8058s
     0     0 -502.98751    0 2689 -563.01628 -502.98751  10.7%     - 8170s
     0     0 -503.08976    0 2676 -563.01628 -503.08976  10.6%     - 8317s
     0     0 -503.08976    0 2689 -563.01628 -503.08976  10.6%     - 8325s
     0     0 -504.42237    0 2613 -563.01628 -504.42237  10.4%     - 11804s
     0     0 -505.48257    0 2631 -563.01628 -505.48257  10.2%     - 12562s
     0     0 -505.58202    0 2639 -563.01628 -505.58202  10.2%     - 12631s
     0     0 -505.58202    0 2643 -563.01628 -505.58202  10.2%     - 12635s
     0     0 -506.40278    0 2628 -563.01628 -506.40278  10.1%     - 14988s
     0     0 -506.57806    0 2638 -563.01628 -506.57806  10.0%     - 15683s
     0     0 -506.57806    0 2642 -563.01628 -506.57806  10.0%     - 15691s
     0     0 -507.11486    0 2639 -563.01628 -507.11486  9.93%     - 15728s
     0     0 -507.66187    0 2635 -563.01628 -507.66187  9.83%     - 15931s
     0     0 -507.71768    0 2627 -563.01628 -507.71768  9.82%     - 15992s
     0     0 -507.77520    0 2623 -563.01628 -507.77520  9.81%     - 16005s
     0     0 -507.77520    0 2622 -563.01628 -507.77520  9.81%     - 16010s
     0     0 -508.70202    0 2623 -563.01628 -508.70202  9.65%     - 16157s
     0     0 -508.89565    0 2601 -563.01628 -508.89565  9.61%     - 16249s
     0     0 -508.92689    0 2654 -563.01628 -508.92689  9.61%     - 16273s
     0     0 -508.94535    0 2654 -563.01628 -508.94535  9.60%     - 16288s
     0     0 -508.95346    0 2655 -563.01628 -508.95346  9.60%     - 16295s
     0     0 -508.96418    0 2655 -563.01628 -508.96418  9.60%     - 16303s
     0     0 -508.96418    0 2657 -563.01628 -508.96418  9.60%     - 16307s
     0     0 -510.27938    0 2651 -563.01628 -510.27938  9.37%     - 16562s
     0     0 -510.47407    0 2659 -563.01628 -510.47407  9.33%     - 16631s
     0     0 -510.48533    0 2645 -563.01628 -510.48533  9.33%     - 16649s
     0     0 -510.48533    0 2651 -563.01628 -510.48533  9.33%     - 16655s
     0     0 -511.57610    0 2646 -563.01628 -511.57610  9.14%     - 17041s
     0     0 -511.86015    0 2650 -563.01628 -511.86015  9.09%     - 17079s
     0     0 -511.92409    0 2631 -563.01628 -511.92409  9.07%     - 17099s
     0     0 -511.93697    0 2652 -563.01628 -511.93697  9.07%     - 17113s
     0     0 -511.96452    0 2653 -563.01628 -511.96452  9.07%     - 17127s
     0     0 -511.96570    0 2669 -563.01628 -511.96570  9.07%     - 17132s
     0     0 -512.88592    0 2658 -563.01628 -512.88592  8.90%     - 17179s
     0     0 -512.98164    0 2646 -563.01628 -512.98164  8.89%     - 17215s
     0     0 -512.99032    0 2650 -563.01628 -512.99032  8.89%     - 17226s
     0     0 -512.99032    0 2651 -563.01628 -512.99032  8.89%     - 17230s
     0     0 -513.91053    0 2653 -563.01628 -513.91053  8.72%     - 17548s
     0     0 -513.91053    0 2652 -563.01628 -513.91053  8.72%     - 17562s
     0     0 -515.24471    0 2655 -563.01628 -515.24471  8.48%     - 18269s
     0     0 -515.41071    0 2655 -563.01628 -515.41071  8.46%     - 18372s
     0     0 -515.48213    0 2666 -563.01628 -515.48213  8.44%     - 18410s
     0     0 -515.48213    0 2670 -563.01628 -515.48213  8.44%     - 18414s
     0     0 -516.18581    0 2633 -563.01628 -516.18581  8.32%     - 18899s
     0     0 -517.06764    0 2667 -563.01628 -517.06764  8.16%     - 20357s
     0     0 -517.20083    0 2659 -563.01628 -517.20083  8.14%     - 20376s
     0     0 -517.24456    0 2654 -563.01628 -517.24456  8.13%     - 20391s
     0     0 -517.26986    0 2645 -563.01628 -517.26986  8.13%     - 20425s
     0     0 -517.30272    0 2656 -563.01628 -517.30272  8.12%     - 20459s
     0     0 -517.30272    0 2659 -563.01628 -517.30272  8.12%     - 20464s
     0     0 -517.42537    0 2651 -563.01628 -517.42537  8.10%     - 20584s
     0     0 -517.55024    0 2647 -563.01628 -517.55024  8.08%     - 20687s
     0     0 -517.55224    0 2640 -563.01628 -517.55224  8.08%     - 20695s
     0     0 -518.52974    0 2653 -563.01628 -518.52974  7.90%     - 22586s
     0     0 -518.72798    0 2636 -563.01628 -518.72798  7.87%     - 23317s
     0     0 -518.81982    0 2654 -563.01628 -518.81982  7.85%     - 23390s
     0     0 -518.85677    0 2647 -563.01628 -518.85677  7.84%     - 23425s
     0     0 -518.86636    0 2648 -563.01628 -518.86636  7.84%     - 23445s
     0     0 -518.86636    0 2649 -563.01628 -518.86636  7.84%     - 23450s
     0     0 -518.88136    0 2661 -563.01628 -518.88136  7.84%     - 23496s
     0     0 -519.20369    0 2644 -563.01628 -519.20369  7.78%     - 23621s
     0     0 -519.39290    0 2654 -563.01628 -519.39290  7.75%     - 23688s
     0     0 -519.44437    0 2660 -563.01628 -519.44437  7.74%     - 23698s
     0     0 -519.44525    0 2660 -563.01628 -519.44525  7.74%     - 23702s
     0     0 -519.77318    0 2676 -563.01628 -519.77318  7.68%     - 23843s
     0     0 -519.86759    0 2656 -563.01628 -519.86759  7.66%     - 23877s
     0     0 -519.87935    0 2677 -563.01628 -519.87935  7.66%     - 23894s
     0     0 -519.88475    0 2670 -563.01628 -519.88475  7.66%     - 23902s
     0     0 -519.92672    0 2657 -563.01628 -519.92672  7.65%     - 23913s
     0     0 -520.05145    0 2643 -563.01628 -520.05145  7.63%     - 23935s
     0     0 -520.07579    0 2661 -563.01628 -520.07579  7.63%     - 23948s
     0     0 -520.08330    0 2662 -563.01628 -520.08330  7.63%     - 23954s
     0     0 -520.08330    0 2668 -563.01628 -520.08330  7.63%     - 23958s
     0     0 -520.49267    0 2664 -563.01628 -520.49267  7.55%     - 24023s
     0     0 -520.58887    0 2660 -563.01628 -520.58887  7.54%     - 24070s
     0     0 -520.60217    0 2649 -563.01628 -520.60217  7.53%     - 24079s
     0     0 -520.60384    0 2654 -563.01628 -520.60384  7.53%     - 24085s
     0     0 -520.81332    0 2639 -563.01628 -520.81332  7.50%     - 24178s
     0     0 -520.94684    0 2636 -563.01628 -520.94684  7.47%     - 24220s
     0     0 -520.99175    0 2643 -563.01628 -520.99175  7.46%     - 24256s
     0     0 -520.99868    0 2644 -563.01628 -520.99868  7.46%     - 24265s
     0     0 -520.99952    0 2644 -563.01628 -520.99952  7.46%     - 24271s
     0     0 -521.47370    0 2635 -563.01628 -521.47370  7.38%     - 24505s
     0     0 -521.64177    0 2614 -563.01628 -521.64177  7.35%     - 24663s
     0     0 -521.64177    0 2618 -563.01628 -521.64177  7.35%     - 24676s
     0     0 -521.70808    0 2616 -563.01628 -521.70808  7.34%     - 25071s
     0     0 -521.70808    0 2620 -563.01628 -521.70808  7.34%     - 25081s
     0     0 -521.70808    0 2629 -563.01628 -521.70808  7.34%     - 25106s
     0     0 -521.70808    0 2625 -563.01628 -521.70808  7.34%     - 25116s
     0     0 -521.70808    0 2588 -563.01628 -521.70808  7.34%     - 28533s
     0     0 -521.70808    0 2588 -563.01628 -521.70808  7.34%     - 29019s
     0     2 -521.70833    0 2588 -563.01628 -521.70833  7.34%     - 29742s
     1     3 -528.04804    1 1329 -563.01628 -521.71224  7.34% 42301 30187s
     2     4 -528.96826    2 1317 -563.01628 -521.71224  7.34% 24836 30250s
     3     3     cutoff    2      -563.01628 -521.71224  7.34% 39803 31129s
     4     4 -528.96826    3 1315 -563.01628 -521.71224  7.34% 29853 31130s
     5     5 -529.58173    4 1497 -563.01628 -521.71224  7.34% 25225 31184s
     6     6 -547.37259    4 1045 -563.01628 -521.71224  7.34% 26283 31598s
     7     7 -530.50195    5 1442 -563.01628 -521.71224  7.34% 23658 31676s
     8     8 -547.37259    5 1052 -563.01628 -521.71224  7.34% 24669 32140s
     9     9 -531.42217    6 1355 -563.01628 -521.71224  7.34% 22687 32260s
    10    10 -532.34238    7 1361 -563.01628 -521.71224  7.34% 20590 32272s
    11    11 -532.64912    8 1190 -563.01628 -521.71224  7.34% 18769 32278s
    12    10     cutoff    8      -563.01628 -521.71224  7.34% 21049 32838s
    13    11 -533.26260    9 1329 -563.01628 -521.71224  7.34% 19941 32934s
    14    12 -533.56934   10 1075 -563.01628 -521.71224  7.34% 18541 32937s
    15    13 -553.81411   10  936 -563.01628 -521.71224  7.34% 19477 33365s
    16    14 -554.73433   11  927 -563.01628 -521.71224  7.34% 18284 33416s
    17    13     cutoff   11      -563.01628 -521.71224  7.34% 18074 33549s
    18    14 -556.57476   12  788 -563.01628 -521.71224  7.34% 17239 33573s
    20    16 -557.49498   14  836 -563.01628 -521.71224  7.34% 15551 33577s
    21    17 -561.17585   14   63 -563.01628 -521.71224  7.34% 14968 33598s
H   22    16                    -561.1758473 -521.71224  7.03% 14288 33600s
    24    16 -558.41520   15  639 -561.17585 -521.71224  7.03% 13123 33612s
    26    16 -559.33541   16  605 -561.17585 -521.71224  7.03% 12167 33619s
    27    17 -559.33541   17  608 -561.17585 -521.71224  7.03% 11719 33624s
    28    18 -560.25563   18  563 -561.17585 -521.71224  7.03% 11323 33628s
    30    16     cutoff   19      -561.17585 -521.71224  7.03% 10578 33630s
    32    16 -543.05665    1 2414 -561.17585 -528.96826  5.74% 12311 35127s
    33    17 -552.27985    2  889 -561.17585 -528.96826  5.74% 12638 35389s
    34    18 -552.97922    3  708 -561.17585 -528.96826  5.74% 12292 35397s
    35    19 -557.55520    4  665 -561.17585 -528.96826  5.74% 12019 35413s
    36    20 -552.97922    4  706 -561.17585 -528.96826  5.74% 11695 35415s
    37    21 -557.55520    5  602 -561.17585 -528.96826  5.74% 11493 35452s
    39    23 -554.84475    6  488 -561.17585 -528.96826  5.74% 10925 35458s
    40    24 -555.76497    7  435 -561.17585 -528.96826  5.74% 10655 35460s
    44    26 -558.52562   10  402 -561.17585 -528.96826  5.74%  9701 35465s
    51    33 -560.36605   16   24 -561.17585 -528.96826  5.74%  8381 35470s
    71    53 -560.36605   33    7 -561.17585 -528.96826  5.74%  6029 35475s
H   73    28                    -560.3660526 -528.96826  5.60%  5864 35475s
    77    26 -557.44478    3 1143 -560.36605 -530.50694  5.33%  6065 36003s
    78    27 -559.28521    4 1189 -560.36605 -530.50694  5.33%  6051 36034s
    79    28 -559.28521    5 1207 -560.36605 -530.50694  5.33%  5977 36036s
    85    28     cutoff    9      -560.36605 -530.50694  5.33%  5561 36040s
    88    27 -559.31031    6  758 -560.36605 -531.42510  5.16%  5764 36425s
    90    27     cutoff    7      -560.36605 -531.42510  5.16%  5645 36430s
    93    26 -559.28521    7  797 -560.36605 -532.65456  4.95%  5911 36900s
    96    27 -560.23053    9  699 -560.36605 -532.65456  4.95%  5741 36909s
    97    28 -560.25563   10  660 -560.36605 -532.65456  4.95%  5682 36910s
   101    26 -556.52456    9  941 -560.36605 -533.56934  4.78%  5834 37300s
   102    27 -557.44478   10  955 -560.36605 -533.56934  4.78%  5786 37307s
   105    30 -560.20543   13  954 -560.36605 -533.56934  4.78%  5630 37313s
   108    27     cutoff   13      -560.36605 -533.56934  4.78%  5476 37315s
   111    28 -535.83702   12 1643 -560.36605 -533.56934  4.78%  5610 37696s
   112    29 -536.65864   13 1568 -560.36605 -533.56934  4.78%  5830 38113s
   113    30 -537.47465   14 1560 -560.36605 -533.56934  4.78%  6065 38527s
   114    31 -540.47097   15 1409 -560.36605 -533.56934  4.78%  6609 39614s
   115    32 -540.93108   16 1190 -560.36605 -533.56934  4.78%  6564 39625s
   116    33 -541.85129   17 1117 -560.36605 -533.56934  4.78%  6625 39895s
   117    34 -542.61814   18 1284 -560.36605 -533.56934  4.78%  6604 39945s
   118    35 -542.77151   19 1375 -560.36605 -533.56934  4.78%  6560 39968s
   119    36 -543.69173   20 1117 -560.36605 -533.56934  4.78%  6541 40044s
   120    37 -544.38189   21 1194 -560.36605 -533.56934  4.78%  6503 40079s
   121    38 -544.38189   22 1196 -560.36605 -533.56934  4.78%  6450 40081s
   122    39 -544.61194   23 1116 -560.36605 -533.56934  4.78%  6414 40109s
   123    40 -547.60265   24 1150 -560.36605 -533.56934  4.78%  6711 41047s
   124    41 -547.60265   25 1220 -560.36605 -533.56934  4.78%  6662 41060s
   125    42 -548.52287   26 1153 -560.36605 -533.56934  4.78%  7256 42768s
   126    43 -551.97009   27 1199 -560.36605 -533.56934  4.78%  7396 43285s
   127    44 -551.97368   28 1202 -560.36605 -533.56934  4.78%  7343 43296s
   128    45 -553.81411   29  669 -560.36605 -533.56934  4.78%  7319 43371s
   129    46 -554.73433   30  607 -560.36605 -533.56934  4.78%  7289 43436s
   130    47 -554.73433   31  685 -560.36605 -533.56934  4.78%  7235 43442s
   131    48 -555.65455   32  553 -560.36605 -533.56934  4.78%  7296 43772s
   132    49 -557.49498   33  497 -560.36605 -533.56934  4.78%  7264 43833s
   134    51 -558.41520   35  369 -560.36605 -533.56934  4.78%  7193 43928s
   135    52 -559.33541   36  409 -560.36605 -533.56934  4.78%  7150 43955s
   136    51     cutoff   37      -560.36605 -533.56934  4.78%  7181 44127s
   137    52 -560.25563   37  529 -560.36605 -533.56934  4.78%  7332 44944s
   139    50     cutoff   38      -560.36605 -533.56934  4.78%  7230 44950s
   140    49     cutoff   36      -560.36605 -533.56934  4.78%  7628 47160s
   141    48     cutoff   35      -560.36605 -533.56934  4.78% 10027 61611s
   142    47     cutoff   34      -560.36605 -533.56934  4.78% 10908 67107s
   143    48 -557.49498   33  843 -560.36605 -533.56934  4.78% 11155 68470s
   144    47     cutoff   34      -560.36605 -533.56934  4.78% 14417 82818s
   145    48 -558.41520   34  675 -560.36605 -533.56934  4.78% 14501 83490s
   146    49 -559.33541   35  603 -560.36605 -533.56934  4.78% 14408 83511s
   147    50 -560.25563   36  623 -560.36605 -533.56934  4.78% 14325 83549s
   149    48     cutoff   37      -560.36605 -533.56934  4.78% 14135 83557s

Cutting planes:
  Gomory: 1
  MIR: 1
  StrongCG: 4
  Zero half: 561

Explored 150 nodes (3291814 simplex iterations) in 86400.22 seconds
Thread count was 1 (of 80 available processors)

Solution count 10: -560.366 -561.176 -563.016 ... -619.919

Time limit reached
Best objective -5.603660526160e+02, best bound -5.335693408000e+02, gap 4.7820%
